NAME : covtype.pruned_global_4.-4833896.tour
COMMENT : Length = -4833896
TYPE : TOUR
DIMENSION : 54
TOUR_SECTION
53
51
49
47
45
43
10
13
2
8
3
7
9
4
5
1
11
6
37
35
33
31
29
27
25
23
22
21
20
19
18
17
16
15
12
14
24
26
28
30
32
34
36
38
39
40
41
42
44
46
48
50
52
54
-1
EOF
